100
12 4
12 0
38 1
20 3
23 1
10 4
30 3
19 4
22 0
15 1
2 3
40 3
14 0
16 3
13 4
34 0
33 4
2 4
36 4
38 3
36 0
23 0
18 3
29 4
18 0
3 3
21 2
15 3
43 0
7 0
9 0
13 0
39 4
25 2
33 2
34 4
25 4
31 3
9 1
14 4
13 2
38 0
3 1
27 4
24 0
15 0
6 4
24 4
41 4
27 1
1 1
11 0
41 3
28 4
18 4
0 3
39 3
32 0
29 2
36 2
42 3
13 3
43 4
4 3
24 1
3 0
7 4
12 3
43 3
6 0
32 4
37 4
31 0
40 0
30 1
23 4
11 4
37 0
33 0
22 3
25 1
19 0
1 0
0 1
40 2
0 0
37 2
40 4
21 0
19 3
0 4
42 0
5 4
29 0
27 3
1 3
36 1
20 0
24 3
33 1

